c nIsolatedPIs 8
c maxPI 24
p cnf 109 256
c gate 25 -4 16 0
-4 -25 0
16 -25 0
4 -16 25 0
c gate 26 -1 13 0
-1 -26 0
13 -26 0
1 -13 26 0
c gate 27 -25 -26 0
-25 -27 0
-26 -27 0
25 26 27 0
c gate 28 5 -17 0
5 -28 0
-17 -28 0
-5 17 28 0
c gate 29 4 -16 0
4 -29 0
-16 -29 0
-4 16 29 0
c gate 30 -28 -29 0
-28 -30 0
-29 -30 0
28 29 30 0
c gate 31 -27 30 0
-27 -31 0
30 -31 0
27 -30 31 0
c gate 32 -6 18 0
-6 -32 0
18 -32 0
6 -18 32 0
c gate 33 -5 17 0
-5 -33 0
17 -33 0
5 -17 33 0
c gate 34 -32 -33 0
-32 -34 0
-33 -34 0
32 33 34 0
c gate 35 -31 34 0
-31 -35 0
34 -35 0
31 -34 35 0
c gate 36 6 -18 0
6 -36 0
-18 -36 0
-6 18 36 0
c gate 37 7 -19 0
7 -37 0
-19 -37 0
-7 19 37 0
c gate 38 -36 -37 0
-36 -38 0
-37 -38 0
36 37 38 0
c gate 39 -35 38 0
-35 -39 0
38 -39 0
35 -38 39 0
c gate 40 -8 20 0
-8 -40 0
20 -40 0
8 -20 40 0
c gate 41 -7 19 0
-7 -41 0
19 -41 0
7 -19 41 0
c gate 42 -40 -41 0
-40 -42 0
-41 -42 0
40 41 42 0
c gate 43 -39 42 0
-39 -43 0
42 -43 0
39 -42 43 0
c gate 44 8 -20 0
8 -44 0
-20 -44 0
-8 20 44 0
c gate 45 9 -21 0
9 -45 0
-21 -45 0
-9 21 45 0
c gate 46 -44 -45 0
-44 -46 0
-45 -46 0
44 45 46 0
c gate 47 -43 46 0
-43 -47 0
46 -47 0
43 -46 47 0
c gate 48 -10 -22 0
-10 -48 0
-22 -48 0
10 22 48 0
c gate 49 10 22 0
10 -49 0
22 -49 0
-10 -22 49 0
c gate 50 -48 -49 0
-48 -50 0
-49 -50 0
48 49 50 0
c gate 51 -9 21 0
-9 -51 0
21 -51 0
9 -21 51 0
c gate 52 -50 -51 0
-50 -52 0
-51 -52 0
50 51 52 0
c gate 53 -47 52 0
-47 -53 0
52 -53 0
47 -52 53 0
c gate 54 -4 -16 0
-4 -54 0
-16 -54 0
4 16 54 0
c gate 55 1 13 0
1 -55 0
13 -55 0
-1 -13 55 0
c gate 56 -54 55 0
-54 -56 0
55 -56 0
54 -55 56 0
c gate 57 5 17 0
5 -57 0
17 -57 0
-5 -17 57 0
c gate 58 4 16 0
4 -58 0
16 -58 0
-4 -16 58 0
c gate 59 -57 -58 0
-57 -59 0
-58 -59 0
57 58 59 0
c gate 60 -56 59 0
-56 -60 0
59 -60 0
56 -59 60 0
c gate 61 -5 -17 0
-5 -61 0
-17 -61 0
5 17 61 0
c gate 62 -6 -18 0
-6 -62 0
-18 -62 0
6 18 62 0
c gate 63 -61 -62 0
-61 -63 0
-62 -63 0
61 62 63 0
c gate 64 -60 63 0
-60 -64 0
63 -64 0
60 -63 64 0
c gate 65 7 19 0
7 -65 0
19 -65 0
-7 -19 65 0
c gate 66 6 18 0
6 -66 0
18 -66 0
-6 -18 66 0
c gate 67 -65 -66 0
-65 -67 0
-66 -67 0
65 66 67 0
c gate 68 -64 67 0
-64 -68 0
67 -68 0
64 -67 68 0
c gate 69 -7 -19 0
-7 -69 0
-19 -69 0
7 19 69 0
c gate 70 -8 -20 0
-8 -70 0
-20 -70 0
8 20 70 0
c gate 71 -69 -70 0
-69 -71 0
-70 -71 0
69 70 71 0
c gate 72 -68 71 0
-68 -72 0
71 -72 0
68 -71 72 0
c gate 73 -45 -51 0
-45 -73 0
-51 -73 0
45 51 73 0
c gate 74 8 20 0
8 -74 0
20 -74 0
-8 -20 74 0
c gate 75 -73 -74 0
-73 -75 0
-74 -75 0
73 74 75 0
c gate 76 -72 75 0
-72 -76 0
75 -76 0
72 -75 76 0
c gate 77 10 -22 0
10 -77 0
-22 -77 0
-10 22 77 0
c gate 78 11 -23 0
11 -78 0
-23 -78 0
-11 23 78 0
c gate 79 -77 -78 0
-77 -79 0
-78 -79 0
77 78 79 0
c gate 80 -11 23 0
-11 -80 0
23 -80 0
11 -23 80 0
c gate 81 -12 24 0
-12 -81 0
24 -81 0
12 -24 81 0
c gate 82 -80 -81 0
-80 -82 0
-81 -82 0
80 81 82 0
c gate 83 -79 82 0
-79 -83 0
82 -83 0
79 -82 83 0
c gate 84 2 14 0
2 -84 0
14 -84 0
-2 -14 84 0
c gate 85 -2 -14 0
-2 -85 0
-14 -85 0
2 14 85 0
c gate 86 -84 -85 0
-84 -86 0
-85 -86 0
84 85 86 0
c gate 87 12 -24 0
12 -87 0
-24 -87 0
-12 24 87 0
c gate 88 -86 -87 0
-86 -88 0
-87 -88 0
86 87 88 0
c gate 89 -83 88 0
-83 -89 0
88 -89 0
83 -88 89 0
c gate 90 -9 -21 0
-9 -90 0
-21 -90 0
9 21 90 0
c gate 91 -48 -90 0
-48 -91 0
-90 -91 0
48 90 91 0
c gate 92 11 23 0
11 -92 0
23 -92 0
-11 -23 92 0
c gate 93 -49 -92 0
-49 -93 0
-92 -93 0
49 92 93 0
c gate 94 -91 93 0
-91 -94 0
93 -94 0
91 -93 94 0
c gate 95 -12 -24 0
-12 -95 0
-24 -95 0
12 24 95 0
c gate 96 -11 -23 0
-11 -96 0
-23 -96 0
11 23 96 0
c gate 97 -95 -96 0
-95 -97 0
-96 -97 0
95 96 97 0
c gate 98 -94 97 0
-94 -98 0
97 -98 0
94 -97 98 0
c gate 99 12 24 0
12 -99 0
24 -99 0
-12 -24 99 0
c gate 100 -84 -99 0
-84 -100 0
-99 -100 0
84 99 100 0
c gate 101 -98 100 0
-98 -101 0
100 -101 0
98 -100 101 0
c gate 102 -3 -15 0
-3 -102 0
-15 -102 0
3 15 102 0
c gate 103 3 15 0
3 -103 0
15 -103 0
-3 -15 103 0
c gate 104 -85 -103 0
-85 -104 0
-103 -104 0
85 103 104 0
c gate 105 -102 104 0
-102 -105 0
104 -105 0
102 -104 105 0
c gate 106 -101 105 0
-101 -106 0
105 -106 0
101 -105 106 0
c gate 107 -89 -106 0
-89 -107 0
-106 -107 0
89 106 107 0
c gate 108 -76 107 0
-76 -108 0
107 -108 0
76 -107 108 0
c gate 109 -53 108 0
-53 -109 0
108 -109 0
53 -108 109 0
c PO
-109 0
